WARNING: for repeatability, setting FPU to use double precision
============================[ Problem Statistics ]=============================
|                                                                             |
|  Number of variables:          2501                                         |
|  Number of clauses:           58453                                         |
|  Parse time:                   0.01 s                                       |
|                                                                             |
c ============================[ Search Statistics ]==============================
c | Conflicts |          ORIGINAL         |          LEARNT          | Progress |
c |           |    Vars  Clauses Literals |    Limit  Clauses Lit/Cl |          |
c ===============================================================================
c Switched to VSIDS.
c Switched to LRB.
c Switched to VSIDS.
c Switched to LRB.
c Switched to VSIDS.
c Switched to LRB.
c Switched to VSIDS.
c Switched to LRB.
c Switched to VSIDS.
c Switched to LRB.
c Switched to VSIDS.
c Switched to LRB.
c Switched to VSIDS.
c Switched to LRB.
c Switched to VSIDS.
c Switched to LRB.
c Switched to VSIDS.
c Switched to LRB.
c Switched to VSIDS.
c Switched to LRB.
c Switched to VSIDS.
c Switched to LRB.
c Switched to VSIDS.
c Switched to LRB.
c ===============================================================================
restarts                  : 48729
conflicts                 : 14499748       (4103 /sec)
decisions                 : 39396910       (0.00 % random) (11148 /sec)
propagations              : 2933321183     (830012 /sec)
conflict literals         : 3601940643     (25.06 % deleted)

conflicts w/ DIP found    : 4689552        (32.34 % of conflicts)
conflicts w/ dangerous DIP: 0              (0.00 % of conflicts)
conflicts w/ DIP-learning : 112125         (0.77 % of conflicts)
decisions on ext vars     : 2486419        (6.31 % of decisions)
total ext vars            : 3436        
tried delete ext vars     : 4           
deleted ext vars          : 4           
max ext vars              : 3432        

Memory used               : 552.00 MB
CPU time                  : 3534.07 s
DIP computation time      : 82.1518 s (2.32 % of total time)
ER_sel time               : 24.673 s
ER_add time               : 0.017011 s
ER_delC time              : 0 s
ER_delV time              : 5.3e-05 s
ER_sub time               : 28.3133 s
ER_stat time              : 0 s

INDETERMINATE
